c
c start with comments
c
p cnf 47 31
-20 11 0
-33 -7 0
-5 39 -15 0
-10 -37 1 0
-28 -19 -48 0
-46 -45 -44 0
-28 -25 40 19 0
41 -50 -15 38 25 -24 0
-9 -9 30 -41 0
-12 -8 13 42 -46 -36 0
42 -34 -13 30 -37 35 0
-43 2 -11 0
-2 4 -22 0
6 -23 -44 40 0
-36 -25 -19 0
36 7 27 -11 42 0
-22 40 -24 43 0
-49 12 0
6 50 29 34 39 0
50 -9 23 -11 0
25 21 -36 32 45 40 0
20 -16 21 0
-29 30 41 0
-3 -5 33 -46 43 0
16 4 -25 -29 0
4 -23 -17 0
-6 -11 41 48 0
44 18 0
-16 -11 7 -26 0
-44 38 -11 0
-35 -34 -15 -16 17 0